25395,
24271,
23843,
23843,
23052,
21994,
20993,
20830,
20250,
19657,
19582,
19156,
18715,
18505,
17968,
17891,
17530,
17403,
17220,
17059,
16900,
16549,
16549,
16391,
16299,
16299,
16296,
16296,
16277,
16277,
16277,
16277,
16277,
16277,
16277,
16277,
16277,
16277,
16277,
16277,
16277,
16277,
16277,
16277,
16277,
16277,
16277,
16277,
16277,
16277,
16277,
16277,
16277,
16277,
16277,
16183,
16183,
16183,
16164,
16164,
16164,
16164,
16164,
16164,
16164,
16164,
16164,
16164,
16164,
16164,
16164,
16164,
16164,
16164,
16164,
16164,
16164,
16164,
16164,
16164,
16164,
16164,
16164,
16164,
16164,
16164,
16164,
16164,
16164,
16164,
16164,
16164,
16164,
16164,
16164,
16164,
16104,
16104,
16104,
15929,
15929,
15929,
15929,
15693,
15693,
15693,
15693,
15693,
15693,
15693,
15693,
15693,
15693,
15693,
15693,
15693,
15693,
15693,
15693,
15693,
15693,
15641,
15641,
15641,
15610,
15610,
15488,
15488,
15455,
15455,
15455,
15455,
15359,
15359,
15359,
15347,
15219,
15206,
15206,
15156,
15156,
14995,
14983,
14983,
14983,
14983,
14983,
14983,
14983,
14983,
14983,
14983,
14983,
14983,
14983,
14983,
14983,
14983,
14983,
14983,
14983,
14983,
14983,
14983,
14983,
14983,
14983,
14983,
14983,
14983,
14983,
14983,
14983,
14983,
14983,
14983,
14983,
14983,
14983,
14983,
14983,
14902,
14902,
14902,
14902,
14902,
14902,
14902,
14894,
14894,
14894,
14894,
14894,
14894,
14894,
14894,
14894,
14894,
14894,
14894,
14804,
14804,
14804,
14796,
14796,
14796,
14796,
14796,
14796,
14796,
14796,
14796,
14688,
14688,
14688,
14640,
14640,
14640,
14640,
14640,
14640,
14640,
14640,
14640,
14640,
14633,
14633,
14633,
14633,
14633,
14633,
14633,
14633,
14617,
14617,
14617,
14617,
14617,
14617,
14617,
14617,
14617,
14575,
14575,
14575,
14483,
14483,
14483,
14483,
14483,
14361,
14361,
14361,
14361,
14361,
14361,
14361,
14361,
14361,
14361,
14361,
14361,
14361,
14361,
14361,
14361,
14361,
14361,
14361,
14361,
14361,
14361,
14361,
14361,
14361,
14361,
14361,
14361,
14361,
14361,
14361,
14361,
14361,
14361,
14361,
14361,
14361,
14361,
14361,
14361,
14361,
14361,
14361,
14055,
14055,
13952,
13952,
13952,
13952,
13952,
13952,
13952,
13952,
13952,
13952,
13952,
13952,
13952,
13952,
13952,
13952,
13952,
13952,
13952,
13952,
13952,
13921,
13921,
13921,
13921,
13921,
13921,
13921,
13921,
13921,
13921,
13921,
13921,
13921,
13921,
13921,
13921,
13921,
13921,
13921,
13921,
13921,
13921,
13893,
13893,
13893,
13893,
13893,
13893,
13893,
13859,
13859,
13859,
13859,
13859,
13859,
13859,
13856,
13837,
13837,
13834,
13834,
13834,
13834,
13834,
13834,
13834,
13834,
13834,
13834,
13834,
13834,
13834,
13834,
13834,
13834,
13834,
13796,
13796,
13796,
13796,
13796,
13796,
13796,
13796,
13784,
13784,
13784,
13784,
13784,
13784,
13784,
13784,
13784,
13784,
13784,
13784,
13784,
13784,
13784,
13784,
13784,
13784,
13784,
13784,
13784,
13784,
13784,
13784,
13784,
13784,
13179,
13179,
13179,
13179,
13179,
13179,
13179,
13179,
13179,
13179,
13179,
13179,
13179,
13179,
13179,
13179,
13179,
13179,
13179,
13171,
13171,
13171,
13171,
13171,
13171,
13171,
13171,
13171,
13171,
13171,
13171,
13171,
13171,
13171,
13171,
13171,
13171,
13171,
13171,
13171,
13171,
13171,
13171,
13171,
13171,
13171,
13171,
13171,
13171,
13171,
13171,
13171,
13171,
13171,
13171,
13171,
13171,
13171,
13171,
13171,
13171,
13171,
13171,
13171,
13171,
13171,
13171,
13171,
13171,
13171,
13171,
13171,
13171,
13171,
13171,
13171,
13171,
13171,
13171,
13171,
13171,
13171,
13171,
13171,
13171,
13171,
13171,
13171,
13171,
13171,
13171,
13171,
13171,
13171,
13171,
13171,
13171,
13171,
13171,
13171,
13171,
13171,
13171,
13171,
13171,
13171,
13171,
13171,
13171,
13171,
13171,
13171,
13104,
13104,
13104,
13104,
13104,
13104,
13104,
13104,
13104,
13104,
13104,
13104,
13104,
13104,
13104,
13104,
13104,
13104,
13104,
13104,
13104,
13104,
13104,
13104,
13104,
13104,
13104,
13104,
13104,
13104,
13104,
13104,
13104,
13104,
13104,
13104,
13104,
13104,
13104,
13104,
13104,
13104,
13104,
13097,
13097,
13097,
13097,
13097,
13097,
13097,
13097,
13097,
13097,
13097,
13097,
13097,
13097,
13097,
13097,
13097,
13097,
13007,
13007,
13007,
13007,
13007,
13007,
13007,
13007,
13007,
13007,
13007,
13007,
13007,
13007,
13007,
13007,
13007,
13007,
13007,
13007,
13007,
13007,
13007,
13007,
13007,
13007,
13007,
13007,
13007,
13007,
13007,
13007,
13007,
13007,
13007,
13007,
13007,
13007,
13007,
13007,
13007,
13007,
13007,
13007,
13007,
13007,
13007,
13007,
13007,
13007,
13007,
13007,
13007,
13007,
13007,
13007,
13007,
13007,
13007,
13007,
13007,
13007,
13007,
13007,
13007,
13007,
13007,
13007,
13007,
13007,
13007,
13007,
13007,
13007,
13007,
13007,
13007,
13007,
13007,
13007,
13007,
12984,
12984,
12984,
12984,
12984,
12984,
12984,
12984,
12984,
12984,
12984,
12984,
12984,
12984,
12984,
12984,
12984,
12984,
12984,
12984,
12984,
12984,
12984,
12984,
12984,
12984,
12984,
12984,
12984,
12984,
12984,
12984,
12984,
12984,
12984,
12984,
12984,
12984,
12984,
12984,
12984,
12984,
12984,
12984,
12984,
12984,
12984,
12984,
12984,
12984,
12515,
12515,
12515,
12515,
12515,
12515,
12515,
12515,
12515,
12515,
12515,
12515,
12515,
12515,
12515,
12515,
12515,
12515,
12515,
12515,
12515,
12515,
12515,
12515,
12515,
12515,
12515,
12515,
12515,
12409,
12409,
12409,
12409,
12409,
12409,
12409,
12409,
12409,
12409,
12409,
12409,
12409,
12409,
12409,
12409,
12409,
12409,
12409,
12409,
12409,
12409,
12409,
12409,
12409,
12409,
12409,
12409,
12409,
12409,
12409,
12409,
12409,
12409,
12409,
12409,
12409,
12409,
12409,
12409,
12409,
12409,
12409,
12409,
12409,
12409,
12409,
12409,
12409,
12409,
12409,
12409,
12409,
12409,
12409,
12409,
12409,
12409,
12409,
12409,
12409,
12409,
12409,
12409,
12409,
12409,
12409,
12409,
12409,
12409,
12409,
12409,
12409,
12409,
12409,
12409,
12347,
12347,
12347,
12347,
12347,
12347,
12347,
12347,
12315,
12315,
12315,
12315,
12315,
12315,
12315,
12315,
12315,
12315,
12315,
12315,
12315,
12315,
12315,
12309,
12309,
12309,
12309,
12309,
12309,
12309,
12309,
12309,
12309,
12309,
12309,
12309,
12309,
12309,
12309,
12309,
12309,
12309,
12309,
12309,
12309,
12309,
12309,
12309,
12309,
12309,
12309,
12309,
12287,
12287,
12287,
12287,
12287,
12287,
12287,
12287,
12287,
12287,
12287,
12287,
12287,
12287,
12287,
12287,
12287,
12287,
12287,
12287,
12287,
12287,
12287,
12287,
12287,
12287,
12287,
12287,
12287,
12287,
12287,
12287,
12287,
12287,
12287,
12287,
12287,
12287,
12287,
12287,
12287,
12287,
12287,
12287,
12287,
12287,
12287,
12287,
12287,
12287,
12287,
12287,
12287,
12287,
12287,
12287,
12287,
12287,
12287,
12287,
12287,
12287,
12287,
12287,
12287,
12287,
12287,
12287,
12287,
12287,
12287,
12287,
12287,
12287,
12287,
12287,
12287,
12287,
12287,
12287,
12287,
12287,
12287,
12287,
12287,
12287,
12287,
12287,
12287,
12287,
12287,
12287,
12287,
12287,
12287,
12287,
12287,
12287,
12287,
12287,
12287,
12287,
12287,
12287,
12287,
12287,
12287,
12287,
12287,
12287,
12287,
12287,
12287,
12287,
12287,
12287,
12287,
12287,
12287,
12287,
12287,
12287,
12287,
12287,
12287,
12287,
12287,
12287,
12287,
12287,
12287,
12287,
12287,
12287,
12287,
12287,
12287,
12287,
12287,
12287,
12287,
12287,
12287,
12287,
12287,
12287,
12287,
12287,
12287,
12287,
12287,
12287,
12287,
12287,
12287,
12287,
12287,
12287,
12287,
12287,
12287,
12287,
12287,
12287,
12287,
12287,
12287,
12287,
12287,
12287,
12287,
12287,
12287,
12287,
12287,
12287,
12287,
12287,
12287,
12287,
12287,
12287,
12287,
12287,
12287,
12287,
12287,
12287,
12287,
12287,
12287,
12287,
12287,
12287,
12287,
12287,
12287,
12287,
12287,
12287,
12287,
12287,
12287,
12287,
12287,
12287,
12287,
12287,
12287,
12287,
12287,
12287,
12287,
12287,
12287,
12287,
12287,
12287,
12287,
12287,
12287,
12287,
12287,
12287,
12287,
12287,
12287,
12287,
12287,
12287,
12287,
12287,
12287,
12287,
12287,
12287,
12280,
12280,
12280,
12280,
12280,
12280,
12280,
12253,
12253,
12253,
12253,
12253,
12253,
12253,
12253,
12253,
12253,
12253,
12253,
12253,
12253,
12253,
12253,
12253,
12253,
12253,
12253,
12253,
12253,
12253,
12253,
12253,
12253,
12253,
12253,
12253,
12253,
12253,
12253,
12253,
12253,
12253,
12253,
12253,
12253,
12253,
12253,
12253,
12253,
12253,
12253,
12253,
12253,
12253,
12253,
12253,
12253,
12253,
12253,
12253,
12253,
12253,
12253,
12253,
12253,
12253,
12253,
12253,
12253,
12253,
12253,
12253,
12253,
12253,
12222,
12222,
12192,
12192,
12192,
12192,
12192,
12192,
12192,
12192,
12192,
12192,
12192,
12192,
12192,
12192,
12192,
12192,
12192,
12192,
12192,
12192,
12192,
12192,
12192,
12192,
12192,
12192,
12192,
12192,
12192,
12192,
12192,
12192,
12192,
12192,
12192,
12192,
12192,
12192,
12192,
12192,
12192,
12192,
12192,
12192,
12192,
12192,
12192,
12192,
12192,
12192,
12192,
12192,
12192,
12192,
12192,
12192,
12192,
12192,
12192,
12192,
12192,
12192,
12192,
12192,
12192,
12192,
12192,
12192,
12192,
12192,
12192,
12192,
12192,
12192,
12192,
12192,
12192,
12192,
12192,
12192,
12192,
12192,
12192,
12192,
12192,
12192,
12192,
12192,
12192,
12192,
12192,
12192,
12192,
12192,
12192,
12192,
12192,
12192,
12192,
12192,
12192,
12192,
12192,
12192,
12192,
12192,
12192,
12192,
12192,
12192,
12192,
12192,
12192,
12192,
12192,
12192,
12192,
12192,
12192,
12192,
12192,
12192,
12192,
12192,
12192,
12192,
12192,
12192,
12192,
12192,
12192,
12192,
12192,
12192,
12192,
12192,
12192,
12192,
12192,
12192,
12192,
12192,
12192,
12192,
12192,
12192,
12192,
12192,
12192,
12192,
12192,
12192,
12192,
12192,
12192,
12192,
12192,
12192,
12174,
12174,
12174,
12174,
12174,
12174,
12174,
12174,
12174,
12174,
12174,
12174,
12174,
12174,
12174,
12174,
12174,
12174,
12174,
12174,
12174,
12174,
12174,
12174,
12174,
12174,
12174,
12174,
12174,
12174,
12174,
12174,
12174,
12174,
12174,
12174,
12174,
12174,
12174,
12174,
12174,
12174,
12174,
12174,
12174,
12174,
12174,
12174,
12174,
12174,
12174,
12174,
12174,
12174,
12174,
12174,
12174,
12174,
12174,
12145,
12145,
12145,
12145,
12145,
12145,
12145,
12145,
12145,
12145,
12145,
12145,
12145,
12145,
12145,
12145,
12145,
12145,
12145,
12145,
12145,
12145,
12145,
12145,
12145,
12145,
12145,
12145,
12145,
12145,
12145,
12145,
12145,
12145,
12145,
12145,
12145,
12145,
12145,
12145,
12145,
12145,
12145,
12145,
12145,
12145,
12145,
12145,
12145,
12145,
12145,
12145,
12145,
12145,
12145,
12145,
12145,
12145,
12145,
12145,
12145,
12145,
12145,
12145,
12145,
12145,
12145,
12145,
12145,
12145,
12145,
12145,
12145,
12145,
12145,
12145,
12145,
12145,
12145,
12145,
12145,
12145,
12145,
12145,
12145,
12145,
12145,
12145,
12145,
12145,
12145,
12145,
12145,
12145,
12145,
12145,
12145,
12145,
12145,
12145,
12145,
12145,
12145,
12145,
12145,
1,
